 nreg = 179
 nparams = 6
 minstops = 80
 maxstops = 120
 time = [3600.0, 3600.0, 3600.0, 3600.0, 3600.0, 3600.0, 3600.0, 612.0, 59.0, 60.0, 60.0, 60.0, 60.0, 60.0, 60.0, 60.0, 60.0, 60.0, 60.0, 60.0, 60.0, 60.0, 60.0, 60.0, 60.0, 60.0, 20.0, 6.0, 59.0, 60.0, 60.0, 60.0, 60.0, 60.0, 12.0, 59.0, 7.0, 59.0, 60.0, 60.0, 60.0, 60.0, 60.0, 27.0, 59.0, 60.0, 60.0, 11.0, 14.0, 12.0, 7.0, 27.0, 59.0, 60.0, 20.0, 59.0, 60.0, 60.0, 60.0, 2.0, 59.0, 39.0, 59.0, 60.0, 31.0, 59.0, 60.0, 60.0, 55.0, 59.0, 60.0, 60.0, 60.0, 60.0, 60.0, 60.0, 60.0, 60.0, 18.0, 1120.0, 59.0, 60.0, 60.0, 60.0, 60.0, 60.0, 60.0, 60.0, 60.0, 60.0, 60.0, 60.0, 60.0, 60.0, 60.0, 60.0, 60.0, 60.0, 60.0, 60.0, 60.0, 60.0, 36.0, 516.0, 957.0, 59.0, 60.0, 60.0, 60.0, 60.0, 22.0, 204.0, 29.0, 999.0, 59.0, 60.0, 60.0, 34.0, 375.0, 59.0, 60.0, 48.0, 335.0, 890.0, 59.0, 17.0, 10.0, 25.0, 59.0, 60.0, 45.0, 59.0, 45.0, 13.0, 59.0, 60.0, 60.0, 21.0, 3.0, 59.0, 60.0, 34.0, 30.0, 59.0, 60.0, 35.0, 7.0, 3.0, 15.0, 59.0, 60.0, 4.0, 26.0, 5.0, 48.0, 403.0, 23.0, 510.0, 59.0, 36.0, 23.0, 13.0, 3.0, 4.0, 16.0, 461.0, 3600.0, 3600.0, 3600.0, 3600.0, 3600.0, 3600.0, 3600.0, 3600.0, 3601.0, 3600.0, 3600.0, 3600.0]
 lat = [-34.86992, -34.86992, -34.86992, -34.86992, -34.86992, -34.86992, -34.86992, -34.86992, -34.86992, -34.86992, -34.86992, -34.86992, -34.86992, -34.86992, -34.86992, -34.86992, -34.86992, -34.86992, -34.86992, -34.86992, -34.86992, -34.86992, -34.868944, -34.865488, -34.861292, -34.856388, -34.852812, -34.851984, -34.85196, -34.85312, -34.853664, -34.853252, -34.853084, -34.853084, -34.853084, -34.853104, -34.852932, -34.852892, -34.852756, -34.854152, -34.856388, -34.85974, -34.863176, -34.86418, -34.8642, -34.865564, -34.868524, -34.870884, -34.871248, -34.87164, -34.87172, -34.871628, -34.8716, -34.869992, -34.868944, -34.868356, -34.867928, -34.867928, -34.867928, -34.867928, -34.86898, -34.86936, -34.870732, -34.871492, -34.871492, -34.86994, -34.868724, -34.867096, -34.86576, -34.864532, -34.864976, -34.864976, -34.86326, -34.86326, -34.86326, -34.863488, -34.863488, -34.863116, -34.862784, -34.862784, -34.862784, -34.862784, -34.862784, -34.862784, -34.862784, -34.862784, -34.862784, -34.862784, -34.862784, -34.862784, -34.862784, -34.862784, -34.862784, -34.862784, -34.862784, -34.862784, -34.862784, -34.862784, -34.862784, -34.862784, -34.862784, -34.862784, -34.862784, -34.862784, -34.862784, -34.862784, -34.862784, -34.862784, -34.862784, -34.862784, -34.862784, -34.862784, -34.862784, -34.862784, -34.862784, -34.862784, -34.862784, -34.862784, -34.862784, -34.862784, -34.862784, -34.862784, -34.862784, -34.862784, -34.862784, -34.862784, -34.862784, -34.862732, -34.863312, -34.859476, -34.85802, -34.858012, -34.855168, -34.85322, -34.853344, -34.850352, -34.846804, -34.84442, -34.843632, -34.84372, -34.84734, -34.852156, -34.856112, -34.855684, -34.852472, -34.85282, -34.851396, -34.8512, -34.851296, -34.852012, -34.861044, -34.869848, -34.869912, -34.869804, -34.86998, -34.870048, -34.870048, -34.870048, -34.870048, -34.870048, -34.870108, -34.869772, -34.869956, -34.8699, -34.869832, -34.869824, -34.869824, -34.869824, -34.869824, -34.869824, -34.869824, -34.869824, -34.869824, -34.869824, -34.869824, -34.869824, -34.869824, -34.869824, -34.869824]
 lon = [-56.2846, -56.2846, -56.2846, -56.2846, -56.2846, -56.2846, -56.2846, -56.2846, -56.2846, -56.2846, -56.2846, -56.2846, -56.2846, -56.2846, -56.2846, -56.2846, -56.2846, -56.2846, -56.2846, -56.2846, -56.2846, -56.2846, -56.286988, -56.287644, -56.288492, -56.289484, -56.290236, -56.290296, -56.290092, -56.286184, -56.28084, -56.275904, -56.274212, -56.274212, -56.274212, -56.274132, -56.271064, -56.27082, -56.267884, -56.263524, -56.258736, -56.256956, -56.254776, -56.252888, -56.252796, -56.248248, -56.244536, -56.241928, -56.241776, -56.242028, -56.24238, -56.2425, -56.242456, -56.240776, -56.239492, -56.238724, -56.238212, -56.238212, -56.238212, -56.238212, -56.2363, -56.235804, -56.23418, -56.233264, -56.233264, -56.231072, -56.229508, -56.22766, -56.225976, -56.224348, -56.223692, -56.223692, -56.221276, -56.221276, -56.221276, -56.219064, -56.219064, -56.216728, -56.21636, -56.21636, -56.21636, -56.21636, -56.21636, -56.21636, -56.21636, -56.21636, -56.21636, -56.21636, -56.21636, -56.21636, -56.21636, -56.21636, -56.21636, -56.21636, -56.21636, -56.21636, -56.21636, -56.21636, -56.21636, -56.21636, -56.21636, -56.21636, -56.21636, -56.21636, -56.21636, -56.21636, -56.21636, -56.21636, -56.21636, -56.21636, -56.21636, -56.21636, -56.21636, -56.21636, -56.21636, -56.21636, -56.21636, -56.21636, -56.21636, -56.21636, -56.21636, -56.21636, -56.21636, -56.21636, -56.21636, -56.21636, -56.216356, -56.216304, -56.217136, -56.223484, -56.225916, -56.225936, -56.2311, -56.236288, -56.236916, -56.24256, -56.248876, -56.253136, -56.254464, -56.254516, -56.25458, -56.254644, -56.25656, -56.259408, -56.271576, -56.284788, -56.289704, -56.289956, -56.29006, -56.290608, -56.288592, -56.286792, -56.28662, -56.28506, -56.28504, -56.285092, -56.285092, -56.285092, -56.285092, -56.285092, -56.285452, -56.28502, -56.284696, -56.284624, -56.28464, -56.284644, -56.284644, -56.284644, -56.284644, -56.284644, -56.284644, -56.284644, -56.284644, -56.284644, -56.284644, -56.284644, -56.284644, -56.284644, -56.284644]
 vel = [0, 0, 0, 0, 0, 0, 0, 0, 0, 0, 0, 0, 0, 0, 0, 0, 0, 0, 0, 0, 0, 0, 16, 25, 29, 27, 22, 11, 12, 21, 28, 28, 0, 0, 0, 14, 12, 12, 24, 30, 26, 25, 23, 0, 15, 28, 27, 15, 12, 13, 9, 6, 15, 0, 0, 13, 0, 0, 0, 0, 9, 0, 10, 0, 0, 10, 14, 13, 12, 8, 0, 0, 0, 0, 0, 0, 0, 7, 0, 0, 0, 0, 0, 0, 0, 0, 0, 0, 0, 0, 0, 0, 0, 0, 0, 0, 0, 0, 0, 0, 0, 0, 0, 0, 0, 0, 0, 0, 0, 0, 0, 0, 0, 0, 0, 0, 0, 0, 0, 0, 0, 0, 0, 0, 0, 0, 8, 11, 15, 53, 0, 13, 43, 31, 22, 31, 42, 33, 15, 13, 32, 64, 43, 44, 78, 70, 13, 17, 18, 19, 74, 20, 14, 17, 14, 0, 0, 0, 0, 0, 15, 10, 12, 11, 3, 0, 0, 0, 0, 0, 0, 0, 0, 0, 0, 0, 0, 0, 0]
 km = [0.069, 0.069, 0.069, 0.069, 0.069, 0.069, 0.069, 0.069, 0.069, 0.069, 0.069, 0.069, 0.069, 0.069, 0.069, 0.069, 0.069, 0.069, 0.069, 0.069, 0.069, 0.069, 0.167, 0.56, 1.038, 1.597, 2.006, 2.107, 2.126, 2.512, 3.009, 3.466, 3.631, 3.631, 3.631, 3.631, 3.927, 3.952, 4.229, 4.661, 5.172, 5.594, 6.038, 6.253, 6.253, 6.704, 7.182, 7.545, 7.589, 7.641, 7.677, 7.694, 7.697, 7.942, 7.956, 8.052, 8.123, 8.123, 8.123, 8.123, 8.123, 8.187, 8.187, 8.307, 8.307, 8.354, 8.552, 8.804, 9.022, 9.229, 9.311, 9.311, 9.389, 9.389, 9.389, 9.389, 9.389, 9.394, 9.447, 9.447, 9.447, 9.447, 9.447, 9.447, 9.447, 9.447, 9.447, 9.447, 9.447, 9.447, 9.447, 9.447, 9.447, 9.447, 9.447, 9.447, 9.447, 9.447, 9.447, 9.447, 9.447, 9.447, 9.447, 9.447, 9.447, 9.447, 9.447, 9.447, 9.447, 9.447, 9.447, 9.447, 9.447, 9.447, 9.447, 9.447, 9.447, 9.447, 9.447, 9.447, 9.447, 9.447, 9.447, 9.447, 9.447, 9.447, 9.447, 9.455, 9.555, 10.272, 10.565, 10.565, 11.129, 11.672, 11.742, 12.359, 13.061, 13.54, 13.698, 13.71, 14.113, 14.659, 15.154, 15.427, 16.622, 17.852, 18.354, 18.388, 18.403, 18.502, 19.52, 20.538, 20.559, 20.708, 20.729, 20.742, 20.742, 20.742, 20.742, 20.742, 20.742, 20.827, 20.866, 20.876, 20.886, 20.888, 20.888, 20.888, 20.888, 20.888, 20.888, 20.888, 20.888, 20.888, 20.888, 20.888, 20.888, 20.888, 20.888]
 events = [O, O, O, O, O, O, O, O, E, O, O, O, O, O, O, O, O, O, O, O, O, O, O, O, O, O, O, O, O, O, O, O, O, O, O, O, O, O, O, O, O, O, O, O, O, O, O, O, O, O, O, O, O, O, O, O, O, O, O, O, O, O, O, O, O, O, O, O, O, O, O, O, O, O, O, O, O, O, O, A, E, O, O, O, O, O, O, O, O, O, O, O, O, O, O, O, O, O, O, O, O, O, O, A, O, E, O, O, O, O, O, A, E, A, E, O, O, O, A, E, O, O, A, O, E, O, O, O, O, O, O, O, O, O, O, O, O, O, O, O, O, O, O, O, O, O, O, O, O, O, O, O, O, O, O, A, E, A, E, O, O, O, O, O, O, A, O, O, O, O, O, O, O, O, O, O, O, O, O]
 dParams = [4.0, 0.1, 10.0, 60.0, 0.0001, 1.0]